predicate fzn_all_different_int(array [int] of var int: x);
array [1..4] of int: X_INTRODUCED_29_ = [1,1,1,-1];
array [1..1] of int: X_INTRODUCED_42_ = [3];
var 1..9: X_INTRODUCED_17_;
var 1..9: X_INTRODUCED_18_;
var 1..9: X_INTRODUCED_19_;
var 1..9: X_INTRODUCED_20_;
var 1..9: X_INTRODUCED_21_;
var 1..9: X_INTRODUCED_22_;
var 1..9: X_INTRODUCED_23_;
var 1..9: X_INTRODUCED_24_;
var 1..9: X_INTRODUCED_25_;
var 3..24: magicSum:: output_var:: is_defined_var;
array [1..9] of var int: X_INTRODUCED_16_:: output_array([1..9]) = [X_INTRODUCED_17_,X_INTRODUCED_18_,X_INTRODUCED_19_,X_INTRODUCED_20_,X_INTRODUCED_21_,X_INTRODUCED_22_,X_INTRODUCED_23_,X_INTRODUCED_24_,X_INTRODUCED_25_];
array [1..9] of var int: X_INTRODUCED_26_ ::var_is_introduced  = [X_INTRODUCED_17_,X_INTRODUCED_18_,X_INTRODUCED_19_,X_INTRODUCED_20_,X_INTRODUCED_21_,X_INTRODUCED_22_,X_INTRODUCED_23_,X_INTRODUCED_24_,X_INTRODUCED_25_];
array [1..4] of var int: X_INTRODUCED_44_ ::var_is_introduced  = [X_INTRODUCED_17_,X_INTRODUCED_19_,X_INTRODUCED_23_,X_INTRODUCED_25_];
constraint fzn_all_different_int(X_INTRODUCED_26_);
constraint int_lin_eq(X_INTRODUCED_29_,[X_INTRODUCED_17_,X_INTRODUCED_18_,X_INTRODUCED_19_,magicSum],0):: defines_var(magicSum);
constraint int_lin_eq(X_INTRODUCED_29_,[X_INTRODUCED_20_,X_INTRODUCED_21_,X_INTRODUCED_22_,magicSum],0);
constraint int_lin_eq(X_INTRODUCED_29_,[X_INTRODUCED_23_,X_INTRODUCED_24_,X_INTRODUCED_25_,magicSum],0);
constraint int_lin_eq(X_INTRODUCED_29_,[X_INTRODUCED_17_,X_INTRODUCED_20_,X_INTRODUCED_23_,magicSum],0);
constraint int_lin_eq(X_INTRODUCED_29_,[X_INTRODUCED_18_,X_INTRODUCED_21_,X_INTRODUCED_24_,magicSum],0);
constraint int_lin_eq(X_INTRODUCED_29_,[X_INTRODUCED_19_,X_INTRODUCED_22_,X_INTRODUCED_25_,magicSum],0);
constraint int_lin_eq(X_INTRODUCED_29_,[X_INTRODUCED_17_,X_INTRODUCED_21_,X_INTRODUCED_25_,magicSum],0);
constraint int_lin_eq(X_INTRODUCED_29_,[X_INTRODUCED_23_,X_INTRODUCED_21_,X_INTRODUCED_19_,magicSum],0);
constraint int_lin_eq(X_INTRODUCED_42_,[magicSum],45);
solve :: seq_search([int_search(X_INTRODUCED_44_,input_order,indomain_split,complete),int_search([X_INTRODUCED_17_,X_INTRODUCED_18_,X_INTRODUCED_19_,X_INTRODUCED_20_,X_INTRODUCED_21_,X_INTRODUCED_22_,X_INTRODUCED_23_,X_INTRODUCED_24_,X_INTRODUCED_25_],occurrence,indomain_split,complete)]) satisfy;
